
ACE v2.1 

  instance
    name:PyCSP

  Loading variables...

  Loading constraints...

  domains
    types:1  values:1764  sizes:[7:252]
  variables
    count:252  arrays:1  degrees:[189:4,190:126,191:122]
  constraints
    count:11787  specific:69  groups:2  arities:[4:11718,8:62,63:4,126:3]
    distribution:[Cardinality:4,ConstraintIntension:11718,LexicographicLE:65]
    intStructures:(1,shared:11717)
    wck:2.94  cpu:3.656  mem:97M60

  Building solver... 

  solver
    guaranteedAC:true
    wck:3.02  cpu:3.718  mem:115M935

  preprocessing
    revisions:(46872,useless=46872)  values:1764  unsat:false
    wck:0.109  cpu:3.828  mem:115M935

    run0  dpts:55..59  effs:187  fails:10  wrgs:15  wck:0.00  ngds:4
    run1  dpts:3..8  effs:1067  fails:21  wrgs:35  wck:0.28  ngds:9
    run2  dpts:0..6  effs:1786  fails:33  wrgs:48  wck:0.48  ngds:20
    run3  dpts:0..5  effs:2815  fails:46  wrgs:68  wck:0.64  ngds:27
    run4  dpts:3..8  effs:3573  fails:60  wrgs:85  wck:0.84  ngds:29
    run5  dpts:0..7  effs:4547  fails:76  wrgs:105  wck:1.03  ngds:43
    run6  dpts:0..5  effs:5662  fails:93  wrgs:128  wck:1.28  ngds:52
    run7  dpts:0..9  effs:6398  fails:112  wrgs:148  wck:1.55  ngds:65
    run8  dpts:0..9  effs:7709  fails:133  wrgs:179  wck:1.72  ngds:69
    run9  dpts:0..7  effs:8772  fails:156  wrgs:206  wck:2.00  ngds:79
    run10  dpts:0..7  effs:10194  fails:181  wrgs:244  wck:2.25  ngds:87
    run11  dpts:0..14  effs:11369  fails:209  wrgs:278  wck:2.56  ngds:109
    run12  dpts:0..18  effs:12554  fails:240  wrgs:317  wck:2.81  ngds:128
    run13  dpts:0..18  effs:14240  fails:274  wrgs:382  wck:3.10  ngds:132
    run14  dpts:0..8  effs:15604  fails:311  wrgs:441  wck:3.41  ngds:138
    run15  dpts:0..10  effs:16604  fails:338  wrgs:486  wck:3.67  ngds:138

  global
    effs:16604  revisions:(8965875,useless=8963977)  ngds:138
    stop:FULL_EXPLORATION  wrgs:486
    wck:6.89  cpu:7.593  mem:118M32

s UNSATISFIABLE

d WRONG DECISIONS 486
d FOUND SOLUTIONS 0
d COMPLETE EXPLORATION

c real time : 7.593
